20	5
0	3	1	2	14
1	2	21	17
2	0
3	1	20
4	0
5	1	7
6	1	17
7	1	13
8	1	15
9	1	3
10	1	21
11	1	8
12	1	9
13	0
14	2	16	2
15	1	4
16	1	6
17	1	21
18	1	21
19	1	9
20	1	21
21	0
0	0	0	0	0	0	0
1	5	4	2	5	4	4
2	4	5	1	5	4	3
3	5	2	2	5	2	4
4	3	4	4	4	4	1
5	1	2	2	3	3	1
6	8	1	5	4	1	1
7	10	5	5	5	3	3
8	2	5	5	4	3	1
9	8	4	1	2	2	1
10	9	3	1	2	3	1
11	5	1	1	5	2	4
12	8	4	3	4	3	1
13	6	4	4	1	2	4
14	7	4	2	4	2	2
15	7	5	4	4	4	2
16	4	4	5	1	3	4
17	7	2	5	1	4	2
18	8	3	3	3	2	5
19	9	4	3	3	4	3
20	3	1	3	1	1	3
21	0	0	0	0	0	0
12	12	10	11	8
